
  12    4
  10   10   10   10

   0   0   0   0   0   2 2 4 
   2  10  10  10  10   2 8 3 
   7  10  10  10  10   2 7 5 
  10  10  10  10  10   2 7 5 
   6  10  10  10  10   1 6 
   8  10  10  10  10   1 9 
   2  10  10  10  10   1 9 
   7  10  10  10  10   1 9 
   2  10  10  10  10   1 10 
  10  10  10  10  10   1 11 
   4  10  10  10  10   1 12
   0   0   0   0   0   0 
